000 000 000 000 000 000 -99 -99 -99 -99 -99 -99 000 000 000 000 000 000 000 000 000 000 000 -99 -99 000 000 000 000 -99 -99
000 000 000 000 000 000 -99 -99 -99 -99 -99 -99 -99 000 000 000 -99 000 000 000 000 000 000 000 000 -99 000 000 000 -99 -99
-99 000 000 000 000 000 -99 -99 -99 -99 -99 000 -99 -99 000 000 000 000 000 000 000 000 000 -99 000 000 000 000 000 -99 -99
-99 000 000 000 -99 000 -99 -99 -99 -99 -99 000 000 -99 -99 000 000 000 000 000 000 000 000 000 000 000 000 -99 -99 -99 -99
000 000 000 000 -99 -99 000 000 -99 -99 -99 000 000 000 000 000 000 000 000 -99 000 000 000 000 000 000 -99 -99 -99 -99 -99
000 000 000 000 -99 -99 000 000 -99 -99 -99 -99 000 000 000 000 -99 000 -99 -99 000 000 000 000 000 -99 -99 -99 -99 -99 -99
000 000 000 -99 -99 -99 000 000 -99 -99 000 -99 -99 -99 000 000 -99 -99 -99 000 000 000 000 000 000 000 -99 -99 -99 -99 -99
000 000 -99 000 -99 -99 -99 000 000 000 -99 -99 -99 000 000 000 000 000 -99 000 000 000 000 000 000 000 -99 -99 -99 -99 -99
-99 000 000 000 000 -99 -99 000 000 000 000 000 -99 -99 000 000 -99 000 000 000 000 -99 -99 000 000 000 000 000 -99 -99 -99
-99 -99 000 000 000 -99 -99 -99 -99 000 000 000 -99 -99 000 000 000 000 000 000 000 000 -99 000 000 000 000 000 -99 000 -99
-99 -99 -99 000 000 -99 -99 -99 -99 -99 000 000 000 000 000 000 -99 000 000 000 000 000 -99 000 000 000 000 000 000 000 000
-99 -99 -99 -99 000 000 000 000 -99 000 000 000 000 000 000 000 -99 000 000 000 000 001 -99 001 000 -99 000 000 000 000 000
000 -99 000 000 000 000 000 000 -99 000 000 000 000 000 000 000 -99 000 000 000 000 000 -99 001 000 000 000 000 000 000 000
000 000 000 000 000 000 000 000 000 -99 000 000 000 000 000 000 000 -99 000 000 000 000 -99 000 000 000 000 000 000 -99 000
000 -99 000 000 -99 000 000 000 000 000 -99 000 000 000 000 000 000 -99 000 000 000 000 -99 000 000 001 001 000 000 -99 000
-99 -99 000 000 -99 000 000 000 000 000 000 -99 000 000 000 000 000 -99 000 000 000 000 001 000 000 001 001 000 000 000 -99
000 -99 -99 -99 -99 -99 000 000 000 -99 -99 -99 -99 000 000 000 000 -99 000 000 000 000 000 001 000 000 002 001 000 000 000
-99 -99 000 -99 -99 -99 000 000 000 000 -99 -99 -99 000 000 000 000 000 000 000 000 000 000 002 001 000 003 002 000 000 000
000 000 000 -99 -99 -99 -99 000 000 -99 -99 -99 -99 000 000 000 000 000 000 000 000 000 000 001 001 000 001 003 003 002 001
000 000 000 -99 -99 -99 -99 000 -99 -99 000 000 -99 000 000 -99 000 000 000 000 000 001 001 -99 -99 000 000 003 004 005 004
000 000 000 000 000 -99 -99 -99 000 000 000 000 -99 -99 000 000 000 000 000 000 000 002 001 003 003 000 001 003 005 008 008
000 000 000 000 000 000 -99 000 000 000 -99 000 -99 -99 000 000 000 000 000 000 000 002 004 003 003 004 002 -99 -99 008 011
000 000 000 000 000 000 000 000 000 000 -99 -99 000 000 000 000 000 000 000 000 000 001 005 004 006 004 002 -99 017 012 011
000 000 000 000 000 000 000 000 000 -99 -99 -99 000 000 000 000 000 000 000 000 000 001 007 006 009 005 -99 013 017 015 010
000 000 000 000 000 000 000 000 000 -99 -99 -99 000 000 000 000 000 000 000 000 000 000 005 008 007 006 -99 013 015 022 018
000 000 000 000 000 000 000 000 000 000 -99 -99 000 000 000 000 000 000 000 000 000 000 001 -99 -99 -99 -99 015 028 015 025
000 000 000 000 000 000 000 000 000 000 -99 -99 -99 000 000 000 000 000 000 000 000 000 000 -99 -99 -99 -99 010 015 010 007
000 000 000 000 000 000 000 000 000 000 -99 -99 -99 000 000 000 000 000 000 000 000 000 000 -99 -99 -99 006 007 007 005 006
000 000 000 000 000 000 000 000 000 000 000 000 -99 000 000 000 000 000 000 000 000 000 -99 -99 -99 001 004 006 004 003 004
000 000 000 000 000 000 000 000 000 000 000 000 000 000 000 000 000 000 000 000 000 000 -99 -99 001 001 002 003 003 003 004
000 000 000 000 000 000 000 000 000 000 000 000 000 000 000 000 000 000 000 000 000 -99 -99 000 000 001 002 003 003 002 003
000 000 000 000 000 000 000 000 000 000 000 000 000 000 000 000 000 000 000 000 000 001 000 000 000 000 001 002 001 001 002
000 000 000 000 000 000 000 000 000 000 001 000 000 000 000 000 000 000 000 001 002 001 000 000 000 000 001 001 001 001 002
000 000 000 000 000 000 000 000 000 000 001 001 000 000 000 000 000 000 000 001 002 001 000 000 000 000 001 002 001 001 002
000 000 000 000 000 000 000 000 000 000 000 001 001 000 000 000 000 000 000 001 001 000 000 000 000 000 001 001 001 000 002
000 000 000 000 000 000 000 000 000 000 000 001 001 001 001 000 000 000 000 000 000 000 000 000 000 000 001 001 001 001 001
000 000 000 000 000 -99 000 000 000 000 000 000 001 001 001 000 000 000 000 000 000 000 000 000 000 000 001 001 001 001 001
000 000 000 000 000 000 -99 000 000 000 000 000 000 001 002 000 000 000 000 000 000 000 000 000 000 000 000 001 001 001 000
000 000 000 000 000 -99 -99 -99 000 -99 000 000 000 001 002 000 000 000 000 000 000 000 000 000 000 000 000 001 001 001 000
000 000 000 000 000 000 000 000 -99 000 000 000 000 002 004 001 000 000 000 000 000 000 000 000 000 000 000 000 000 000 000
000 000 000 000 000 000 000 000 000 000 000 000 000 003 003 000 000 000 001 000 000 000 000 000 000 000 000 000 000 000 001
000 000 000 000 000 000 000 000 000 000 000 000 001 002 003 000 000 000 000 000 000 000 000 000 000 000 000 000 000 001 002
000 000 000 000 000 000 000 000 000 000 000 001 002 004 003 001 000 000 000 000 000 000 000 000 000 000 000 000 000 000 002
000 -99 -99 000 000 000 000 000 000 000 000 001 002 005 002 001 000 000 000 000 000 000 000 000 000 000 000 000 000 000 002
000 000 -99 -99 000 000 000 000 000 000 000 001 002 004 002 001 000 000 000 000 000 000 000 000 000 000 000 000 000 001 001
000 -99 -99 -99 -99 000 000 000 000 000 000 000 001 005 002 001 000 001 001 000 000 000 000 000 000 000 000 000 -99 -99 000
000 -99 -99 000 000 000 000 000 000 000 000 000 001 002 002 001 001 000 001 001 001 000 000 000 000 000 000 -99 -99 000 000
-99 000 000 000 000 000 000 000 000 000 000 000 001 001 003 001 001 000 001 002 001 001 000 000 000 000 -99 000 000 000 000
000 000 000 000 000 000 000 000 000 000 000 000 000 001 003 001 000 001 001 002 002 002 001 001 000 000 000 000 000 000 000
000 000 000 000 001 001 000 000 000 000 000 000 001 001 001 001 000 001 002 002 002 001 001 001 001 001 000 000 000 000 000
000 000 000 000 000 000 001 001 000 000 000 000 001 002 001 001 001 001 003 004 002 001 001 001 001 002 001 001 000 001 002
000 000 000 000 000 001 001 001 001 001 000 001 001 000 000 001 001 001 002 004 004 003 002 001 001 002 003 004 004 009 010
000 000 000 000 000 000 001 001 001 001 001 002 003 001 000 000 001 001 002 003 006 006 006 003 004 004 005 004 006 039 024
000 000 000 000 000 000 001 001 002 002 001 003 002 001 000 000 001 001 003 006 011 014 017 011 007 011 009 005 015 022 035
000 000 000 000 000 000 001 002 003 002 001 002 004 000 000 000 000 001 002 005 019 027 017 020 009 015 022 017 019 024 032
